#p M062X/LANL2DZ NOSYMM opt=Z-matrix NOFMM 5D 7F

model

-2   1
Hf
X     1     5.0
X     1     dz       2     90.
C     3     dco      1     90.     2     phi
C     3     dco      1     90.     4     120.
C     3     dco      1     90.     4     240.
X     1     dz       2     90.     3     180.
C     7     dco      1     90.     2       0.
C     7     dco      1     90.     2     120.
C     7     dco      1     90.     2     240.
X     4     dcc      3     a1      1     180.
C    11     dcc      4     60.     3      d1
C    11     dcc      4    120.    12       0.
C    13     dcc     11     60.     4     180.
C    11     dcc      4    120.    12     180.
C    11     dcc      4     60.    12     180.
F    12     dcf     13    120.    11     180.
F    13     dcf     14    120.    11     180.
F    14     dcf     13    120.    11     180.
F    15     dcf     14    120.    11     180.
F    16     dcf     15    120.    11     180.
X     5     dcc      3     a2      1     180.
C    22     dcc      5     60.     3      d2
C    22     dcc      5    120.    23       0.
C    24     dcc     22     60.     5     180.
C    22     dcc      5    120.    23     180.
C    22     dcc      5     60.    23     180.
F    23     dcf     24    120.    22     180.
F    24     dcf     25    120.    22     180.
F    25     dcf     24    120.    22     180.
F    26     dcf     25    120.    22     180.
F    27     dcf     26    120.    22     180.
X     6     dcc      3     a3      1     180.
C    33     dcc      6     60.     3      d3
C    33     dcc      6    120.    34       0.
C    35     dcc     33     60.     6     180.
C    33     dcc      6    120.    34     180.
C    33     dcc      6     60.    34     180.
F    34     dcf     35    120.    33     180.
F    35     dcf     36    120.    33     180.
F    36     dcf     35    120.    33     180.
F    37     dcf     36    120.    33     180.
F    38     dcf     37    120.    33     180.
X     8     dcc      7     a4      1     180.
C    44     dcc      8     60.     7      d4
C    44     dcc      8    120.    45       0.
C    46     dcc     44     60.     8     180.
C    44     dcc      8    120.    45     180.
C    44     dcc      8     60.    45     180.
F    45     dcf     46    120.    44     180.
F    46     dcf     47    120.    44     180.
F    47     dcf     46    120.    44     180.
F    48     dcf     47    120.    44     180.
F    49     dcf     48    120.    44     180.
X     9     dcc      7     a5      1     180.
C    55     dcc      9     60.     7      d5
C    55     dcc      9    120.    56       0.
C    57     dcc     55     60.     9     180.
C    55     dcc      9    120.    56     180.
C    55     dcc      9     60.    56     180.
F    56     dcf     57    120.    55     180.
F    57     dcf     58    120.    55     180.
F    58     dcf     57    120.    55     180.
F    59     dcf     58    120.    55     180.
F    60     dcf     59    120.    55     180.
X    10     dcc      7     a6      1     180.
C    66     dcc     10     60.     7      d6
C    66     dcc     10    120.    67       0.
C    68     dcc     66     60.    10     180.
C    66     dcc     10    120.    67     180.
C    66     dcc     10     60.    67     180.
F    67     dcf     68    120.    66     180.
F    68     dcf     69    120.    66     180.
F    69     dcf     68    120.    66     180.
F    70     dcf     69    120.    66     180.
F    71     dcf     70    120.    66     180.
X     1     dx      3     90.     4     18.78
X     1     dx      3     90.     4    138.78
X     1     dx      3     90.     4    258.78
Variables:
a1  = 151.8347
d1 = 28.3986  1
a2  = 151.8347
d2 = 28.3986  1
a3  = 151.8347
d3 = 28.3986  1
a4  = 151.8347
d4 = 28.3986  1
a5  = 151.8347
d5 = 28.3986  1
a6  = 151.8347
d6 = 28.3986  1
dz  = 1.2767
dco  = 2.0333
phi = 37.5878
dcc  = 1.39
dcf  = 1.38
dx   = 1.924
